(set-info :source |printed by MathSAT|)
(declare-fun |main::argc__param__@1| () Real)
(declare-fun |main::argc@2| () Real)
(declare-fun |__ADDRESS_OF_main::argv__param__| () Real)
(declare-fun |__ADDRESS_OF_main::argv| () Real)
(declare-fun |*(char)*@1| (Real) Real)
(declare-fun |*(char)*@2| (Real) Real)
(declare-fun __ADDRESS_OF_Num () Real)
(declare-fun __BASE_ADDRESS_OF__ (Real) Real)
(declare-fun Num@2 () Real)
(declare-fun |__ADDRESS_OF_main::filename| () Real)
(declare-fun |*((char)*)*@1| (Real) Real)
(declare-fun |main::filename@2| () Real)
(declare-fun |__ADDRESS_OF_main::action| () Real)
(declare-fun *char@1 (Real) Real)
(declare-fun |main::action@2| () Real)
(declare-fun |__ADDRESS_OF_main::conn| () Real)
(declare-fun |Database_open::filename@2| () Real)
(declare-fun |Database_open::mode@2| () Real)
(declare-fun |__ADDRESS_OF_Database_open::conn| () Real)
(declare-fun |__ADDRESS_OF___VERIFIER_successful_alloc_*void#0| () Real)
(declare-fun |Database_open::conn@3| () Real)
(declare-fun Num@3 () Real)
(declare-fun |__ADDRESS_OF___VERIFIER_successful_alloc_*void#1| () Real)
(declare-fun |*(struct_Database)*@2| (Real) Real)
(declare-fun Num@4 () Real)
(define-fun .def_295 () Bool (<= (to_real 0) Num@4))
(define-fun .def_298 () Bool (not .def_295))
(define-fun .def_291 () Real (* (to_real (- 1)) Num@4))
(define-fun .def_292 () Real (+ Num@3 .def_291))
(define-fun .def_293 () Bool (= .def_292 (to_real 1)))
(define-fun .def_284 () Real (+ |Database_open::conn@3| (to_real 4)))
(define-fun .def_285 () Real (|*(struct_Database)*@2| .def_284))
(define-fun .def_286 () Bool (= |__ADDRESS_OF___VERIFIER_successful_alloc_*void#1| .def_285))
(define-fun .def_280 () Real (* (to_real (- 1)) |__ADDRESS_OF___VERIFIER_successful_alloc_*void#1|))
(define-fun .def_281 () Real (+ |__ADDRESS_OF___VERIFIER_successful_alloc_*void#0| .def_280))
(define-fun .def_282 () Bool (<= .def_281 (to_real (- 8))))
(define-fun .def_278 () Bool (<= |__ADDRESS_OF___VERIFIER_successful_alloc_*void#0| (to_real (- 8))))
(define-fun .def_279 () Bool (not .def_278))
(define-fun .def_283 () Bool (and .def_279 .def_282))
(define-fun .def_287 () Bool (and .def_283 .def_286))
(define-fun .def_261 () Bool (= |Database_open::conn@3| (to_real 0)))
(define-fun .def_264 () Bool (not .def_261))
(define-fun .def_236 () Bool (<= (to_real 0) Num@3))
(define-fun .def_232 () Real (* (to_real (- 1)) Num@3))
(define-fun .def_233 () Real (+ Num@2 .def_232))
(define-fun .def_234 () Bool (= .def_233 (to_real 1)))
(define-fun .def_226 () Bool (= |__ADDRESS_OF___VERIFIER_successful_alloc_*void#0| |Database_open::conn@3|))
(define-fun .def_223 () Bool (<= |__ADDRESS_OF___VERIFIER_successful_alloc_*void#0| (to_real 0)))
(define-fun .def_224 () Bool (not .def_223))
(define-fun .def_227 () Bool (and .def_224 .def_226))
(define-fun .def_219 () Real (__BASE_ADDRESS_OF__ |__ADDRESS_OF_Database_open::conn|))
(define-fun .def_220 () Bool (= |__ADDRESS_OF_Database_open::conn| .def_219))
(define-fun .def_215 () Bool (= |main::action@2| |Database_open::mode@2|))
(define-fun .def_213 () Bool (= |main::filename@2| |Database_open::filename@2|))
(define-fun .def_216 () Bool (and .def_213 .def_215))
(define-fun .def_195 () Real (__BASE_ADDRESS_OF__ |__ADDRESS_OF_main::action|))
(define-fun .def_196 () Bool (= |__ADDRESS_OF_main::action| .def_195))
(define-fun .def_186 () Real (__BASE_ADDRESS_OF__ |__ADDRESS_OF_main::filename|))
(define-fun .def_187 () Bool (= |__ADDRESS_OF_main::filename| .def_186))
(define-fun .def_208 () Bool (and .def_187 .def_196))
(define-fun .def_205 () Real (__BASE_ADDRESS_OF__ |__ADDRESS_OF_main::conn|))
(define-fun .def_206 () Bool (= |__ADDRESS_OF_main::conn| .def_205))
(define-fun .def_209 () Bool (and .def_206 .def_208))
(define-fun .def_188 () Real (|*((char)*)*@1| |__ADDRESS_OF_main::argv|))
(define-fun .def_199 () Real (+ .def_188 (to_real 8)))
(define-fun .def_200 () Real (|*(char)*@2| .def_199))
(define-fun .def_201 () Real (*char@1 .def_200))
(define-fun .def_203 () Bool (= .def_201 |main::action@2|))
(define-fun .def_190 () Real (+ .def_188 (to_real 4)))
(define-fun .def_191 () Real (|*(char)*@2| .def_190))
(define-fun .def_193 () Bool (= .def_191 |main::filename@2|))
(define-fun .def_207 () Bool (and .def_193 .def_203))
(define-fun .def_210 () Bool (and .def_207 .def_209))
(define-fun .def_159 () Bool (<= (to_real 3) |main::argc@2|))
(define-fun .def_155 () Bool (= Num@2 (to_real 1)))
(define-fun .def_151 () Real (__BASE_ADDRESS_OF__ __ADDRESS_OF_Num))
(define-fun .def_152 () Bool (= __ADDRESS_OF_Num .def_151))
(define-fun .def_156 () Bool (and .def_152 .def_155))
(define-fun .def_143 () Real (+ |__ADDRESS_OF_main::argv| (to_real 76)))
(define-fun .def_146 () Real (|*(char)*@2| .def_143))
(define-fun .def_144 () Real (+ |__ADDRESS_OF_main::argv__param__| (to_real 76)))
(define-fun .def_145 () Real (|*(char)*@1| .def_144))
(define-fun .def_147 () Bool (= .def_145 .def_146))
(define-fun .def_136 () Real (+ |__ADDRESS_OF_main::argv| (to_real 72)))
(define-fun .def_139 () Real (|*(char)*@2| .def_136))
(define-fun .def_137 () Real (+ |__ADDRESS_OF_main::argv__param__| (to_real 72)))
(define-fun .def_138 () Real (|*(char)*@1| .def_137))
(define-fun .def_140 () Bool (= .def_138 .def_139))
(define-fun .def_129 () Real (+ |__ADDRESS_OF_main::argv| (to_real 68)))
(define-fun .def_132 () Real (|*(char)*@2| .def_129))
(define-fun .def_130 () Real (+ |__ADDRESS_OF_main::argv__param__| (to_real 68)))
(define-fun .def_131 () Real (|*(char)*@1| .def_130))
(define-fun .def_133 () Bool (= .def_131 .def_132))
(define-fun .def_122 () Real (+ |__ADDRESS_OF_main::argv| (to_real 64)))
(define-fun .def_125 () Real (|*(char)*@2| .def_122))
(define-fun .def_123 () Real (+ |__ADDRESS_OF_main::argv__param__| (to_real 64)))
(define-fun .def_124 () Real (|*(char)*@1| .def_123))
(define-fun .def_126 () Bool (= .def_124 .def_125))
(define-fun .def_115 () Real (+ |__ADDRESS_OF_main::argv| (to_real 60)))
(define-fun .def_118 () Real (|*(char)*@2| .def_115))
(define-fun .def_116 () Real (+ |__ADDRESS_OF_main::argv__param__| (to_real 60)))
(define-fun .def_117 () Real (|*(char)*@1| .def_116))
(define-fun .def_119 () Bool (= .def_117 .def_118))
(define-fun .def_108 () Real (+ |__ADDRESS_OF_main::argv| (to_real 56)))
(define-fun .def_111 () Real (|*(char)*@2| .def_108))
(define-fun .def_109 () Real (+ |__ADDRESS_OF_main::argv__param__| (to_real 56)))
(define-fun .def_110 () Real (|*(char)*@1| .def_109))
(define-fun .def_112 () Bool (= .def_110 .def_111))
(define-fun .def_101 () Real (+ |__ADDRESS_OF_main::argv| (to_real 52)))
(define-fun .def_104 () Real (|*(char)*@2| .def_101))
(define-fun .def_102 () Real (+ |__ADDRESS_OF_main::argv__param__| (to_real 52)))
(define-fun .def_103 () Real (|*(char)*@1| .def_102))
(define-fun .def_105 () Bool (= .def_103 .def_104))
(define-fun .def_94 () Real (+ |__ADDRESS_OF_main::argv| (to_real 48)))
(define-fun .def_97 () Real (|*(char)*@2| .def_94))
(define-fun .def_95 () Real (+ |__ADDRESS_OF_main::argv__param__| (to_real 48)))
(define-fun .def_96 () Real (|*(char)*@1| .def_95))
(define-fun .def_98 () Bool (= .def_96 .def_97))
(define-fun .def_87 () Real (+ |__ADDRESS_OF_main::argv| (to_real 44)))
(define-fun .def_90 () Real (|*(char)*@2| .def_87))
(define-fun .def_88 () Real (+ |__ADDRESS_OF_main::argv__param__| (to_real 44)))
(define-fun .def_89 () Real (|*(char)*@1| .def_88))
(define-fun .def_91 () Bool (= .def_89 .def_90))
(define-fun .def_80 () Real (+ |__ADDRESS_OF_main::argv| (to_real 40)))
(define-fun .def_83 () Real (|*(char)*@2| .def_80))
(define-fun .def_81 () Real (+ |__ADDRESS_OF_main::argv__param__| (to_real 40)))
(define-fun .def_82 () Real (|*(char)*@1| .def_81))
(define-fun .def_84 () Bool (= .def_82 .def_83))
(define-fun .def_73 () Real (+ |__ADDRESS_OF_main::argv| (to_real 36)))
(define-fun .def_76 () Real (|*(char)*@2| .def_73))
(define-fun .def_74 () Real (+ |__ADDRESS_OF_main::argv__param__| (to_real 36)))
(define-fun .def_75 () Real (|*(char)*@1| .def_74))
(define-fun .def_77 () Bool (= .def_75 .def_76))
(define-fun .def_66 () Real (+ |__ADDRESS_OF_main::argv| (to_real 32)))
(define-fun .def_69 () Real (|*(char)*@2| .def_66))
(define-fun .def_67 () Real (+ |__ADDRESS_OF_main::argv__param__| (to_real 32)))
(define-fun .def_68 () Real (|*(char)*@1| .def_67))
(define-fun .def_70 () Bool (= .def_68 .def_69))
(define-fun .def_59 () Real (+ |__ADDRESS_OF_main::argv| (to_real 28)))
(define-fun .def_62 () Real (|*(char)*@2| .def_59))
(define-fun .def_60 () Real (+ |__ADDRESS_OF_main::argv__param__| (to_real 28)))
(define-fun .def_61 () Real (|*(char)*@1| .def_60))
(define-fun .def_63 () Bool (= .def_61 .def_62))
(define-fun .def_52 () Real (+ |__ADDRESS_OF_main::argv| (to_real 24)))
(define-fun .def_55 () Real (|*(char)*@2| .def_52))
(define-fun .def_53 () Real (+ |__ADDRESS_OF_main::argv__param__| (to_real 24)))
(define-fun .def_54 () Real (|*(char)*@1| .def_53))
(define-fun .def_56 () Bool (= .def_54 .def_55))
(define-fun .def_45 () Real (+ |__ADDRESS_OF_main::argv| (to_real 20)))
(define-fun .def_48 () Real (|*(char)*@2| .def_45))
(define-fun .def_46 () Real (+ |__ADDRESS_OF_main::argv__param__| (to_real 20)))
(define-fun .def_47 () Real (|*(char)*@1| .def_46))
(define-fun .def_49 () Bool (= .def_47 .def_48))
(define-fun .def_38 () Real (+ |__ADDRESS_OF_main::argv| (to_real 16)))
(define-fun .def_41 () Real (|*(char)*@2| .def_38))
(define-fun .def_39 () Real (+ |__ADDRESS_OF_main::argv__param__| (to_real 16)))
(define-fun .def_40 () Real (|*(char)*@1| .def_39))
(define-fun .def_42 () Bool (= .def_40 .def_41))
(define-fun .def_31 () Real (+ |__ADDRESS_OF_main::argv| (to_real 12)))
(define-fun .def_34 () Real (|*(char)*@2| .def_31))
(define-fun .def_32 () Real (+ |__ADDRESS_OF_main::argv__param__| (to_real 12)))
(define-fun .def_33 () Real (|*(char)*@1| .def_32))
(define-fun .def_35 () Bool (= .def_33 .def_34))
(define-fun .def_24 () Real (+ |__ADDRESS_OF_main::argv| (to_real 8)))
(define-fun .def_27 () Real (|*(char)*@2| .def_24))
(define-fun .def_25 () Real (+ |__ADDRESS_OF_main::argv__param__| (to_real 8)))
(define-fun .def_26 () Real (|*(char)*@1| .def_25))
(define-fun .def_28 () Bool (= .def_26 .def_27))
(define-fun .def_17 () Real (+ |__ADDRESS_OF_main::argv| (to_real 4)))
(define-fun .def_20 () Real (|*(char)*@2| .def_17))
(define-fun .def_18 () Real (+ |__ADDRESS_OF_main::argv__param__| (to_real 4)))
(define-fun .def_19 () Real (|*(char)*@1| .def_18))
(define-fun .def_21 () Bool (= .def_19 .def_20))
(define-fun .def_14 () Real (|*(char)*@2| |__ADDRESS_OF_main::argv|))
(define-fun .def_13 () Real (|*(char)*@1| |__ADDRESS_OF_main::argv__param__|))
(define-fun .def_15 () Bool (= .def_13 .def_14))
(define-fun .def_22 () Bool (and .def_15 .def_21))
(define-fun .def_29 () Bool (and .def_22 .def_28))
(define-fun .def_36 () Bool (and .def_29 .def_35))
(define-fun .def_43 () Bool (and .def_36 .def_42))
(define-fun .def_50 () Bool (and .def_43 .def_49))
(define-fun .def_57 () Bool (and .def_50 .def_56))
(define-fun .def_64 () Bool (and .def_57 .def_63))
(define-fun .def_71 () Bool (and .def_64 .def_70))
(define-fun .def_78 () Bool (and .def_71 .def_77))
(define-fun .def_85 () Bool (and .def_78 .def_84))
(define-fun .def_92 () Bool (and .def_85 .def_91))
(define-fun .def_99 () Bool (and .def_92 .def_98))
(define-fun .def_106 () Bool (and .def_99 .def_105))
(define-fun .def_113 () Bool (and .def_106 .def_112))
(define-fun .def_120 () Bool (and .def_113 .def_119))
(define-fun .def_127 () Bool (and .def_120 .def_126))
(define-fun .def_134 () Bool (and .def_127 .def_133))
(define-fun .def_141 () Bool (and .def_134 .def_140))
(define-fun .def_148 () Bool (and .def_141 .def_147))
(define-fun .def_10 () Bool (= |main::argc__param__@1| |main::argc@2|))
(define-fun .def_149 () Bool (and .def_10 .def_148))
(define-fun .def_157 () Bool (and .def_149 .def_156))
(define-fun .def_163 () Bool (and .def_157 .def_159))
(define-fun .def_211 () Bool (and .def_163 .def_210))
(define-fun .def_217 () Bool (and .def_211 .def_216))
(define-fun .def_221 () Bool (and .def_217 .def_220))
(define-fun .def_228 () Bool (and .def_221 .def_227))
(define-fun .def_235 () Bool (and .def_228 .def_234))
(define-fun .def_238 () Bool (and .def_235 .def_236))
(define-fun .def_265 () Bool (and .def_238 .def_264))
(define-fun .def_288 () Bool (and .def_265 .def_287))
(define-fun .def_294 () Bool (and .def_288 .def_293))
(define-fun .def_299 () Bool (and .def_294 .def_298))
(assert .def_299)
